17	4
19	26	26	25	
0	0	0	0	0	3	2	3	4	
4	0	6	0	5	2	17	17	
8	0	3	0	0	3	6	7	8	
3	4	0	1	8	3	5	17	17	
1	0	1	6	0	2	17	17	
75	0	1	0	8	3	9	16	17	
200	0	0	3	0	3	9	12	15	
100	6	3	0	10	3	10	14	17	
100	5	0	0	9	3	11	13	14	
25	0	7	0	3	2	12	15	
200	0	0	4	0	2	17	17	
250	0	5	5	0	3	17	17	17	
9	0	0	0	5	1	17	
10	0	0	3	0	1	17	
5	0	9	0	8	2	16	17	
9	0	0	2	0	1	17	
0	0	0	0	0	0	
